p cnf 25 38
e 1 0
e 14 15 16 17 7 3 18 4 19 20 5 9 6 2 10 8 13 12 11 21 22 24 23 25 0
1 -21 0
-12 -21 -5 0
-13 -21 -8 0
-11 21 0
-22 -25 8 0
-1 -22 23 25 0
13 -22 -25 0
12 -22 -23 0
5 -22 -23 0
11 22 0
-11 -3 -14 0
-13 -9 -14 0
14 -12 0
-15 -17 3 0
-15 17 18 0
-15 -18 9 0
-15 -17 11 0
-15 -18 13 0
15 12 0
-4 -19 -11 0
-19 -12 -7 0
19 -13 0
-20 11 -24 0
-20 12 -16 0
16 -20 24 0
4 -20 -24 0
7 -20 -16 0
20 13 0
4 0
9 0
-2 0
-3 0
-5 0
-6 0
-7 0
-8 0
-10 0
12 0
